n = 10;
colSum=[2,3,5,6,6,7,5,0,4,0];
rowSum=[2,5,3,2,5,1,5,6,6,3];
groups=[|1,2,2,2,2,3,4,4,4,4|1,1,3,3,3,3,4,3,4,4|1,1,1,3,5,3,3,3,3,4|6,6,1,1,5,5,5,5,4,4|6,6,1,5,5,5,5,5,5,5|6,1,1,6,6,6,6,5,5,5|6,6,6,6,7,6,8,8,8,5|6,9,9,9,7,7,8,8,5,5|10,10,10,9,9,9,8,8,8,5|10,10,10,10,10,10,8,8,8,8|];
rowN = 10;
colN = 10;
pair=[|0,1,1,0,1,1,0,0,0,0|1,0,1,0,0,0,0,0,0,0|1,0,0,1,1,0,0,0,0,0|0,0,1,0,1,0,0,0,0,0|0,0,1,1,0,1,0,1,0,0|1,0,0,0,1,0,1,1,1,1|0,0,0,0,0,1,0,1,1,0|0,0,0,0,1,0,0,0,0,0|0,0,0,0,0,0,1,1,0,1|0,0,0,0,0,0,0,1,1,0|];
